MMBP/Data_G_FJSP_Version/i07.fjs
30 17 1
6.0 2.0 1.0 0.9 2.0 0.9 3.0 3.0 1.305 4.0 1.305 5.0 2.0979 3.0 6.0 1.6335 7.0 2.0205 8.0 2.0205 1.0 11.0 0.5778 3.0 12.0 0.225 13.0 0.378 14.0 0.378 3.0 15.0 1.9818 16.0 1.9818 17.0 0.5661
5.0 2.0 1.0 0.9 2.0 0.9 2.0 3.0 1.305 4.0 1.305 1.0 11.0 0.6894 3.0 12.0 0.225 13.0 0.378 14.0 0.378 3.0 15.0 2.3634 16.0 2.3634 17.0 0.675
5.0 2.0 1.0 0.9 2.0 0.9 2.0 3.0 1.305 4.0 1.305 2.0 9.0 0.3339 10.0 0.3339 3.0 12.0 0.675 13.0 1.134 14.0 1.134 3.0 15.0 0.3276 16.0 0.3276 17.0 0.0936
5.0 2.0 1.0 0.9 2.0 0.9 2.0 3.0 1.305 4.0 1.305 1.0 11.0 0.5832 3.0 12.0 0.45 13.0 0.756 14.0 0.756 3.0 15.0 1.9998 16.0 1.9998 17.0 0.5715
5.0 2.0 1.0 0.9 2.0 0.9 2.0 3.0 1.305 4.0 1.305 2.0 9.0 0.2223 10.0 0.2223 3.0 12.0 0.225 13.0 0.378 14.0 0.378 3.0 15.0 0.2178 16.0 0.2178 17.0 0.0621
5.0 2.0 1.0 0.9 2.0 0.9 2.0 3.0 1.305 4.0 1.305 3.0 9.0 2.0403 10.0 2.0403 11.0 0.5832 3.0 12.0 0.225 13.0 0.378 14.0 0.378 3.0 15.0 1.9998 16.0 1.9998 17.0 0.5715
5.0 2.0 1.0 0.9 2.0 0.9 2.0 3.0 1.305 4.0 1.305 1.0 11.0 0.1062 3.0 12.0 0.225 13.0 0.378 14.0 0.378 3.0 15.0 0.3636 16.0 0.3636 17.0 0.1035
6.0 2.0 1.0 0.9 2.0 0.9 3.0 3.0 1.305 4.0 1.305 5.0 2.0979 3.0 6.0 1.6335 7.0 2.0205 8.0 2.0205 2.0 10.0 0.3708 11.0 0.1062 3.0 12.0 0.675 13.0 1.134 14.0 1.134 3.0 15.0 0.3636 16.0 0.3636 17.0 0.1035
5.0 2.0 1.0 0.9 2.0 0.9 2.0 3.0 1.305 4.0 1.305 1.0 11.0 0.1008 3.0 12.0 0.675 13.0 1.134 14.0 1.134 3.0 15.0 0.3456 16.0 0.3456 17.0 0.099
5.0 2.0 1.0 0.9 2.0 0.9 2.0 3.0 1.305 4.0 1.305 1.0 11.0 0.2646 3.0 12.0 0.45 13.0 0.756 14.0 0.756 3.0 15.0 0.909 16.0 0.909 17.0 0.2601
5.0 2.0 1.0 0.9 2.0 0.9 2.0 3.0 1.305 4.0 1.305 1.0 11.0 0.7947 3.0 12.0 0.45 13.0 0.756 14.0 0.756 3.0 15.0 2.727 16.0 2.727 17.0 0.7794
6.0 2.0 1.0 0.9 2.0 0.9 3.0 3.0 1.305 4.0 1.305 5.0 2.0979 3.0 6.0 1.6335 7.0 2.0205 8.0 2.0205 1.0 10.0 1.8549 3.0 12.0 0.45 13.0 0.756 14.0 0.756 3.0 15.0 1.818 16.0 1.818 17.0 0.5193
6.0 2.0 1.0 0.9 2.0 0.9 3.0 3.0 1.305 4.0 1.305 5.0 2.0979 3.0 6.0 1.6335 7.0 2.0205 8.0 2.0205 1.0 10.0 0.7416 3.0 12.0 0.225 13.0 0.378 14.0 0.378 3.0 15.0 0.7272 16.0 0.7272 17.0 0.2079
5.0 2.0 1.0 0.9 2.0 0.9 2.0 3.0 1.305 4.0 1.305 3.0 9.0 0.3528 10.0 0.3528 11.0 0.1008 3.0 12.0 0.45 13.0 0.756 14.0 0.756 3.0 15.0 0.3456 16.0 0.3456 17.0 0.099
5.0 2.0 1.0 0.9 2.0 0.9 2.0 3.0 1.305 4.0 1.305 3.0 9.0 2.0403 10.0 2.0403 11.0 0.5832 3.0 12.0 0.45 13.0 0.756 14.0 0.756 3.0 15.0 1.9998 16.0 1.9998 17.0 0.5715
6.0 2.0 1.0 0.9 2.0 0.9 3.0 3.0 1.305 4.0 1.305 5.0 2.0979 3.0 6.0 1.6335 7.0 2.0205 8.0 2.0205 1.0 11.0 0.2124 3.0 12.0 0.45 13.0 0.756 14.0 0.756 3.0 15.0 0.7272 16.0 0.7272 17.0 0.2079
6.0 2.0 1.0 0.9 2.0 0.9 3.0 3.0 1.305 4.0 1.305 5.0 2.0979 3.0 6.0 1.6335 7.0 2.0205 8.0 2.0205 2.0 9.0 1.1133 10.0 1.1133 3.0 12.0 0.45 13.0 0.756 14.0 0.756 3.0 15.0 1.0908 16.0 1.0908 17.0 0.3114
5.0 2.0 1.0 0.9 2.0 0.9 2.0 3.0 1.305 4.0 1.305 1.0 11.0 0.6363 3.0 12.0 0.45 13.0 0.756 14.0 0.756 3.0 15.0 2.1816 16.0 2.1816 17.0 0.6237
5.0 2.0 1.0 0.9 2.0 0.9 2.0 3.0 1.305 4.0 1.305 1.0 11.0 0.5616 3.0 12.0 0.45 13.0 0.756 14.0 0.756 3.0 15.0 1.9269 16.0 1.9269 17.0 0.5508
6.0 2.0 1.0 0.9 2.0 0.9 3.0 3.0 1.305 4.0 1.305 5.0 2.0979 3.0 6.0 1.6335 7.0 2.0205 8.0 2.0205 2.0 10.0 0.3339 11.0 0.0954 3.0 12.0 0.675 13.0 1.134 14.0 1.134 3.0 15.0 0.3276 16.0 0.3276 17.0 0.0936
6.0 2.0 1.0 0.9 2.0 0.9 2.0 3.0 1.305 4.0 1.305 2.0 7.0 2.0205 8.0 2.0205 1.0 10.0 0.2781 3.0 12.0 0.675 13.0 1.134 14.0 1.134 3.0 15.0 0.2727 16.0 0.2727 17.0 0.0783
5.0 2.0 1.0 0.9 2.0 0.9 2.0 3.0 1.305 4.0 1.305 1.0 11.0 0.5409 3.0 12.0 0.675 13.0 1.134 14.0 1.134 3.0 15.0 1.8549 16.0 1.8549 17.0 0.5301
6.0 2.0 1.0 0.9 2.0 0.9 3.0 3.0 1.305 4.0 1.305 5.0 2.0979 3.0 6.0 1.6335 7.0 2.0205 8.0 2.0205 2.0 10.0 2.0403 11.0 0.5832 3.0 12.0 0.675 13.0 1.134 14.0 1.134 3.0 15.0 1.9998 16.0 1.9998 17.0 0.5715
6.0 2.0 1.0 0.9 2.0 0.9 2.0 3.0 1.305 4.0 1.305 2.0 7.0 2.0205 8.0 2.0205 2.0 10.0 2.2257 11.0 0.6363 3.0 12.0 0.225 13.0 0.378 14.0 0.378 3.0 15.0 2.1816 16.0 2.1816 17.0 0.6237
5.0 2.0 1.0 0.9 2.0 0.9 2.0 3.0 1.305 4.0 1.305 1.0 10.0 1.1133 3.0 12.0 0.675 13.0 1.134 14.0 1.134 3.0 15.0 1.0908 16.0 1.0908 17.0 0.3114
6.0 2.0 1.0 0.9 2.0 0.9 3.0 3.0 1.305 4.0 1.305 5.0 2.0979 3.0 6.0 1.6335 7.0 2.0205 8.0 2.0205 2.0 10.0 1.9476 11.0 0.5562 3.0 12.0 0.45 13.0 0.756 14.0 0.756 3.0 15.0 1.9089 16.0 1.9089 17.0 0.5454
6.0 2.0 1.0 0.9 2.0 0.9 2.0 3.0 1.305 4.0 1.305 2.0 7.0 2.0205 8.0 2.0205 2.0 10.0 2.0403 11.0 0.5832 3.0 12.0 0.225 13.0 0.378 14.0 0.378 3.0 15.0 1.9998 16.0 1.9998 17.0 0.5715
5.0 2.0 1.0 0.9 2.0 0.9 2.0 3.0 1.305 4.0 1.305 1.0 11.0 0.1062 3.0 12.0 0.225 13.0 0.378 14.0 0.378 3.0 15.0 0.3636 16.0 0.3636 17.0 0.1035
5.0 2.0 1.0 0.9 2.0 0.9 2.0 3.0 1.305 4.0 1.305 2.0 9.0 1.6695 10.0 1.6695 3.0 12.0 0.225 13.0 0.378 14.0 0.378 3.0 15.0 1.6362 16.0 1.6362 17.0 0.4671
5.0 2.0 1.0 0.9 2.0 0.9 2.0 3.0 1.305 4.0 1.305 1.0 10.0 3.339 3.0 12.0 0.225 13.0 0.378 14.0 0.378 3.0 15.0 3.2724 16.0 3.2724 17.0 0.9351
