MMBP/Data_G/i07.txt
TABLE P(I,M)  Production time of order P on machine M (h)
M01	M02	M03	M04	M05	M06	M07	M08	M09	M10	M11	M12	M13	M14	M15	M16	M17
P01	0.9000	0.9000	1.3050	1.3050	2.0979	1.6335	2.0205	2.0205	-	-	0.5778	0.2250	0.3780	0.3780	1.9818	1.9818	0.5661
P02	0.9000	0.9000	1.3050	1.3050	-	-	-	-	-	-	0.6894	0.2250	0.3780	0.3780	2.3634	2.3634	0.6750
P03	0.9000	0.9000	1.3050	1.3050	-	-	-	-	0.3339	0.3339	-	0.6750	1.1340	1.1340	0.3276	0.3276	0.0936
P04	0.9000	0.9000	1.3050	1.3050	-	-	-	-	-	-	0.5832	0.4500	0.7560	0.7560	1.9998	1.9998	0.5715
P05	0.9000	0.9000	1.3050	1.3050	-	-	-	-	0.2223	0.2223	-	0.2250	0.3780	0.3780	0.2178	0.2178	0.0621
P06	0.9000	0.9000	1.3050	1.3050	-	-	-	-	2.0403	2.0403	0.5832	0.2250	0.3780	0.3780	1.9998	1.9998	0.5715
P07	0.9000	0.9000	1.3050	1.3050	-	-	-	-	-	-	0.1062	0.2250	0.3780	0.3780	0.3636	0.3636	0.1035
P08	0.9000	0.9000	1.3050	1.3050	2.0979	1.6335	2.0205	2.0205	-	0.3708	0.1062	0.6750	1.1340	1.1340	0.3636	0.3636	0.1035
P09	0.9000	0.9000	1.3050	1.3050	-	-	-	-	-	-	0.1008	0.6750	1.1340	1.1340	0.3456	0.3456	0.0990
P10	0.9000	0.9000	1.3050	1.3050	-	-	-	-	-	-	0.2646	0.4500	0.7560	0.7560	0.9090	0.9090	0.2601
P11	0.9000	0.9000	1.3050	1.3050	-	-	-	-	-	-	0.7947	0.4500	0.7560	0.7560	2.7270	2.7270	0.7794
P12	0.9000	0.9000	1.3050	1.3050	2.0979	1.6335	2.0205	2.0205	-	1.8549	-	0.4500	0.7560	0.7560	1.8180	1.8180	0.5193
P13	0.9000	0.9000	1.3050	1.3050	2.0979	1.6335	2.0205	2.0205	-	0.7416	-	0.2250	0.3780	0.3780	0.7272	0.7272	0.2079
P14	0.9000	0.9000	1.3050	1.3050	-	-	-	-	0.3528	0.3528	0.1008	0.4500	0.7560	0.7560	0.3456	0.3456	0.0990
P15	0.9000	0.9000	1.3050	1.3050	-	-	-	-	2.0403	2.0403	0.5832	0.4500	0.7560	0.7560	1.9998	1.9998	0.5715
P16	0.9000	0.9000	1.3050	1.3050	2.0979	1.6335	2.0205	2.0205	-	-	0.2124	0.4500	0.7560	0.7560	0.7272	0.7272	0.2079
P17	0.9000	0.9000	1.3050	1.3050	2.0979	1.6335	2.0205	2.0205	1.1133	1.1133	-	0.4500	0.7560	0.7560	1.0908	1.0908	0.3114
P18	0.9000	0.9000	1.3050	1.3050	-	-	-	-	-	-	0.6363	0.4500	0.7560	0.7560	2.1816	2.1816	0.6237
P19	0.9000	0.9000	1.3050	1.3050	-	-	-	-	-	-	0.5616	0.4500	0.7560	0.7560	1.9269	1.9269	0.5508
P20	0.9000	0.9000	1.3050	1.3050	2.0979	1.6335	2.0205	2.0205	-	0.3339	0.0954	0.6750	1.1340	1.1340	0.3276	0.3276	0.0936
P21	0.9000	0.9000	1.3050	1.3050	-	-	2.0205	2.0205	-	0.2781	-	0.6750	1.1340	1.1340	0.2727	0.2727	0.0783
P22	0.9000	0.9000	1.3050	1.3050	-	-	-	-	-	-	0.5409	0.6750	1.1340	1.1340	1.8549	1.8549	0.5301
P23	0.9000	0.9000	1.3050	1.3050	2.0979	1.6335	2.0205	2.0205	-	2.0403	0.5832	0.6750	1.1340	1.1340	1.9998	1.9998	0.5715
P24	0.9000	0.9000	1.3050	1.3050	-	-	2.0205	2.0205	-	2.2257	0.6363	0.2250	0.3780	0.3780	2.1816	2.1816	0.6237
P25	0.9000	0.9000	1.3050	1.3050	-	-	-	-	-	1.1133	-	0.6750	1.1340	1.1340	1.0908	1.0908	0.3114
P26	0.9000	0.9000	1.3050	1.3050	2.0979	1.6335	2.0205	2.0205	-	1.9476	0.5562	0.4500	0.7560	0.7560	1.9089	1.9089	0.5454
P27	0.9000	0.9000	1.3050	1.3050	-	-	2.0205	2.0205	-	2.0403	0.5832	0.2250	0.3780	0.3780	1.9998	1.9998	0.5715
P28	0.9000	0.9000	1.3050	1.3050	-	-	-	-	-	-	0.1062	0.2250	0.3780	0.3780	0.3636	0.3636	0.1035
P29	0.9000	0.9000	1.3050	1.3050	-	-	-	-	1.6695	1.6695	-	0.2250	0.3780	0.3780	1.6362	1.6362	0.4671
P30	0.9000	0.9000	1.3050	1.3050	-	-	-	-	-	3.3390	-	0.2250	0.3780	0.3780	3.2724	3.2724	0.9351

TABLE RMK(M,K)
1	2	3	4	5	6
1*2	1				
3*5		1			
6*8			1		
9*11				1	
12*14					1
15*17						1

PARAMETERS					
R(I)	1*30 0
D(I)	1 30.6,2 16.2,3 23.4, 4 18, 5 27, 6 16.2, 7 28.8,8 20.7,9 18,10 10.8,11 30.6,12 14.4,13 30.6,14 14.4,15 27, 16 20.7, 17 14.4, 18 23.4, 19 20.7, 20 27, 21 30.6, 22 9, 23 18, 24 23.4, 25 23.4, 26 18, 27 14.4, 28 9, 29 18, 30 10.8, 31 34.2, 32 37.8,33 37.8, 34 48.6, 35 40.5, 36 34.2, 37 46.8, 38 54, 39 46.8, 40 49.5, 41 52.2, 42 40.5, 43 54, 44 36, 45 52.2, 46 54, 47 49.5, 48 46.8, 49 52.2, 50 54, 51 48.6, 52 52.2, 53 27, 54 52.2, 55 41.4, 56 49.5, 57 54, 58 52.2, 59 40.5, 60 36